Start evaluate stage for setting _10000_5_4q_mnl_A100...

Evaluating using MNL with setting tag _10000_5_4q_mnl_A100.
 Results stored at /export/storage_covidvaccine/Result/MNL_partial/M5_K10000_4q/HighSchools/

The number of HighSchools opened: 4135
Set parameter ServerPassword
Set parameter CSQueueTimeout to value 120
Set parameter CSIdleTimeout to value 60
Set parameter ServerTimeout to value 10
Set parameter TokenServer to value "164.67.163.231"
Set parameter MIPFocus to value 3
Set parameter MIPGap to value 0.005
Set parameter TimeLimit to value 21600
Gurobi Optimizer version 10.0.1 build v10.0.1rc0 (linux64)

CPU model: AMD EPYC 7742 64-Core Processor, instruction set [SSE2|AVX|AVX2]
Thread count: 128 physical cores, 256 logical processors, using up to 32 threads

Optimize a model with 85812375 rows, 42903525 columns and 85838724 nonzeros
Model fingerprint: 0x1deb191f
Coefficient statistics:
  Matrix range     [4e-01, 1e+04]
  Objective range  [4e-01, 1e+04]
  Bounds range     [1e+00, 1e+00]
  RHS range        [1e+00, 1e+04]
Presolve removed 1194 rows and 0 columns (presolve time = 11s) ...
Presolve removed 85811069 rows and 42871851 columns (presolve time = 18s) ...
Presolve removed 85811069 rows and 42889273 columns (presolve time = 20s) ...
Presolve removed 85811069 rows and 42902219 columns (presolve time = 26s) ...
Presolve removed 85812375 rows and 42903525 columns
Presolve time: 34.37s
Presolve: All rows and columns removed
Iteration    Objective       Primal Inf.    Dual Inf.      Time
       0    3.1441786e+07   0.000000e+00   0.000000e+00     75s

Solved in 0 iterations and 75.20 seconds (51.24 work units)
Optimal objective  3.144178558e+07
Evaluation finished!

Evaluation with leftover fulfillments...

========================================================================================================================
Start filling the leftover demands to their 2 choice

Total demand fulfilled in previous round 31.44179, with leftover unfulfilled demand: 4.16994;    Resulting in a total of 35.61172, but b/c consideration set, the maximum possible demand in coming round is 1.64129;    Try to fill them with 2827 sites that has leftover capacity 9.90678

Set parameter MIPFocus to value 3
Set parameter MIPGap to value 0.005
Set parameter TimeLimit to value 21600
Gurobi Optimizer version 10.0.1 build v10.0.1rc0 (linux64)

CPU model: AMD EPYC 7742 64-Core Processor, instruction set [SSE2|AVX|AVX2]
Thread count: 128 physical cores, 256 logical processors, using up to 32 threads

Optimize a model with 85812375 rows, 42903525 columns and 85809338 nonzeros
Model fingerprint: 0xda92f9d9
Coefficient statistics:
  Matrix range     [8e-02, 1e+04]
  Objective range  [8e-02, 1e+04]
  Bounds range     [1e+00, 1e+00]
  RHS range        [1e+00, 1e+04]
Presolve removed 4091 rows and 0 columns (presolve time = 15s) ...
Presolve removed 85812088 rows and 42901237 columns (presolve time = 24s) ...
Presolve removed 85812088 rows and 42902628 columns (presolve time = 29s) ...
Presolve removed 85812088 rows and 42903238 columns (presolve time = 33s) ...
Presolve removed 85812088 rows and 42903238 columns (presolve time = 36s) ...
Presolve removed 85812375 rows and 42903525 columns (presolve time = 41s) ...
Presolve removed 85812375 rows and 42903525 columns
Presolve time: 45.90s
Presolve: All rows and columns removed
Iteration    Objective       Primal Inf.    Dual Inf.      Time
       0    7.8673201e+05   0.000000e+00   0.000000e+00     95s

Solved in 0 iterations and 94.54 seconds (50.16 work units)
Optimal objective  7.867320127e+05
========================================================================================================================
Start filling the leftover demands to their 3 choice

Total demand fulfilled in previous round 0.78673, with leftover unfulfilled demand: 0.85456;    Resulting in a total of 1.64129, but b/c consideration set, the maximum possible demand in coming round is 0.04446;    Try to fill them with 2486 sites that has leftover capacity 9.1196

Set parameter MIPFocus to value 3
Set parameter MIPGap to value 0.005
Set parameter TimeLimit to value 21600
Gurobi Optimizer version 10.0.1 build v10.0.1rc0 (linux64)

CPU model: AMD EPYC 7742 64-Core Processor, instruction set [SSE2|AVX|AVX2]
Thread count: 128 physical cores, 256 logical processors, using up to 32 threads

Optimize a model with 85812375 rows, 42903525 columns and 85807283 nonzeros
Model fingerprint: 0x8ab78e5c
Coefficient statistics:
  Matrix range     [3e-01, 2e+03]
  Objective range  [3e-01, 2e+03]
  Bounds range     [1e+00, 1e+00]
  RHS range        [1e+00, 1e+04]
Presolve removed 5137 rows and 0 columns (presolve time = 14s) ...
Presolve removed 85812369 rows and 42903292 columns (presolve time = 23s) ...
Presolve removed 85812369 rows and 42903513 columns (presolve time = 27s) ...
Presolve removed 85812369 rows and 42903519 columns (presolve time = 30s) ...
Presolve removed 85812375 rows and 42903525 columns (presolve time = 36s) ...
Presolve removed 85812375 rows and 42903525 columns
Presolve time: 42.10s
Presolve: All rows and columns removed
Iteration    Objective       Primal Inf.    Dual Inf.      Time
       0    4.0949283e+04   0.000000e+00   0.000000e+00     83s

Solved in 0 iterations and 82.51 seconds (50.17 work units)
Optimal objective  4.094928267e+04
Finished evaluate stage for setting _10000_5_4q_mnl_A100!

